(set-option :produce-models true); benchmark generated from python API
(set-info :status unknown)
(declare-fun l_0_0_2 () Real)
(declare-fun _a_1_ () Real)
(declare-fun l_0_0_1 () Real)
(declare-fun l_0_1_7 () Real)
(declare-fun l_0_1_13 () Real)
(declare-fun l_0_1_1 () Real)
(declare-fun l_0_1_17 () Real)
(declare-fun l_0_1_15 () Real)
(declare-fun l_0_1_16 () Real)
(declare-fun l_0_1_14 () Real)
(declare-fun l_0_1_9 () Real)
(declare-fun l_0_1_11 () Real)
(declare-fun l_0_1_8 () Real)
(declare-fun l_0_1_10 () Real)
(declare-fun l_0_1_2 () Real)
(declare-fun _a_5_ () Real)
(declare-fun l_0_1_4 () Real)
(declare-fun _a_3_ () Real)
(declare-fun l_0_1_5 () Real)
(declare-fun l_0_1_3 () Real)
(declare-fun _a_0_ () Real)
(declare-fun _a_4_ () Real)
(declare-fun l_0_1_6 () Real)
(declare-fun _a_2_ () Real)
(declare-fun l_0_1_18 () Real)
(declare-fun l_0_1_12 () Real)
(declare-fun l_0_2_17 () Real)
(declare-fun l_0_2_15 () Real)
(declare-fun l_0_2_16 () Real)
(declare-fun l_0_2_14 () Real)
(declare-fun l_0_2_9 () Real)
(declare-fun l_0_2_11 () Real)
(declare-fun l_0_2_8 () Real)
(declare-fun l_0_2_10 () Real)
(declare-fun l_0_2_2 () Real)
(declare-fun l_0_2_1 () Real)
(declare-fun l_0_2_4 () Real)
(declare-fun l_0_2_5 () Real)
(declare-fun l_0_2_3 () Real)
(declare-fun l_0_2_7 () Real)
(declare-fun l_0_2_13 () Real)
(declare-fun l_0_2_18 () Real)
(declare-fun l_0_2_12 () Real)
(declare-fun l_0_2_6 () Real)
(assert
 (= (- _a_1_ l_0_0_2) 0.0))
(assert
 (= (- l_0_0_1) 0.0))
(assert
 (>= l_0_0_1 0.0))
(assert
 (>= l_0_0_2 0.0))
(assert
 (let ((?x88 (+ (- (* (* (- _a_1_) l_0_1_1) l_0_1_1) (* l_0_1_13 l_0_1_13)) (* 1.0 (* l_0_1_7 l_0_1_7)))))
 (= (+ ?x88 1.0) 0.0)))
(assert
 (let ((?x108 (+ (* (* 2.0 l_0_1_2) l_0_1_4) (* (* 2.0 l_0_1_3) l_0_1_5))))
 (let ((?x114 (- (- (* (* (- _a_0_) l_0_1_1) l_0_1_1) (* _a_1_ ?x108)) (* (* (* 2.0 _a_3_) l_0_1_1) l_0_1_4))))
 (let ((?x121 (+ (- ?x114 (* (* (* 2.0 _a_5_) l_0_1_1) l_0_1_2)) (* (* 2.0 l_0_1_10) l_0_1_8))))
 (let ((?x127 (- (+ ?x121 (* (* 2.0 l_0_1_11) l_0_1_9)) (* (* 2.0 l_0_1_14) l_0_1_16))))
 (= (- ?x127 (* (* 2.0 l_0_1_15) l_0_1_17)) 0.0))))))
(assert
 (let ((?x108 (+ (* (* 2.0 l_0_1_2) l_0_1_4) (* (* 2.0 l_0_1_3) l_0_1_5))))
 (let ((?x198 (- (- (* (* (* (- 2.0) _a_0_) l_0_1_1) l_0_1_2) (* _a_3_ ?x108)) (* (* (* 2.0 _a_4_) l_0_1_1) l_0_1_4))))
 (let ((?x203 (- ?x198 (* _a_5_ (+ (* l_0_1_2 l_0_1_2) (* l_0_1_3 l_0_1_3))))))
 (= ?x203 0.0)))))
(assert
 (let ((?x108 (+ (* (* 2.0 l_0_1_2) l_0_1_4) (* (* 2.0 l_0_1_3) l_0_1_5))))
 (let ((?x254 (* l_0_1_6 l_0_1_6)))
 (let ((?x255 (+ (+ (* l_0_1_4 l_0_1_4) (* l_0_1_5 l_0_1_5)) ?x254)))
 (let ((?x250 (- (* (* (* (- 2.0) _a_0_) l_0_1_1) l_0_1_4) (* (* (* 2.0 _a_2_) l_0_1_1) l_0_1_2))))
 (= (- (- ?x250 (* _a_3_ ?x255)) (* _a_5_ ?x108)) 0.0))))))
(assert
 (let ((?x108 (+ (* (* 2.0 l_0_1_2) l_0_1_4) (* (* 2.0 l_0_1_3) l_0_1_5))))
 (let ((?x308 (- (* (- _a_0_) (+ (* l_0_1_2 l_0_1_2) (* l_0_1_3 l_0_1_3))) (* _a_4_ ?x108))))
 (= ?x308 0.0))))
(assert
 (let ((?x254 (* l_0_1_6 l_0_1_6)))
 (let ((?x255 (+ (+ (* l_0_1_4 l_0_1_4) (* l_0_1_5 l_0_1_5)) ?x254)))
 (let ((?x108 (+ (* (* 2.0 l_0_1_2) l_0_1_4) (* (* 2.0 l_0_1_3) l_0_1_5))))
 (let ((?x97 (- _a_0_)))
 (let ((?x336 (- (* ?x97 ?x108) (* _a_2_ (+ (* l_0_1_2 l_0_1_2) (* l_0_1_3 l_0_1_3))))))
 (= (- ?x336 (* _a_4_ ?x255)) 0.0)))))))
(assert
 (let ((?x108 (+ (* (* 2.0 l_0_1_2) l_0_1_4) (* (* 2.0 l_0_1_3) l_0_1_5))))
 (let ((?x254 (* l_0_1_6 l_0_1_6)))
 (let ((?x255 (+ (+ (* l_0_1_4 l_0_1_4) (* l_0_1_5 l_0_1_5)) ?x254)))
 (let ((?x97 (- _a_0_)))
 (= (- (* ?x97 ?x255) (* _a_2_ ?x108)) 0.0))))))
(assert
 (let ((?x410 (- (* (* (* (- 2.0) _a_1_) l_0_1_1) l_0_1_2) (* (* _a_3_ l_0_1_1) l_0_1_1))))
 (let ((?x416 (+ (- ?x410 (* (* 2.0 l_0_1_13) l_0_1_14)) (* (* 2.0 l_0_1_7) l_0_1_8))))
 (= ?x416 0.0))))
(assert
 (let ((?x438 (- (* (* (* (- 2.0) _a_1_) l_0_1_1) l_0_1_4) (* (* _a_5_ l_0_1_1) l_0_1_1))))
 (let ((?x442 (- (+ ?x438 (* (* 2.0 l_0_1_10) l_0_1_7)) (* (* 2.0 l_0_1_13) l_0_1_16))))
 (= ?x442 0.0))))
(assert
 (let ((?x472 (* l_0_1_15 l_0_1_15)))
 (let ((?x470 (* l_0_1_14 l_0_1_14)))
 (let ((?x466 (- (* (- _a_1_) (+ (* l_0_1_2 l_0_1_2) (* l_0_1_3 l_0_1_3))) (* (* (* 2.0 _a_3_) l_0_1_1) l_0_1_2))))
 (let ((?x476 (+ (- (- (- ?x466 (* (* _a_4_ l_0_1_1) l_0_1_1)) ?x470) ?x472) (* 1.0 (* l_0_1_8 l_0_1_8)))))
 (= (+ ?x476 (* 1.0 (* l_0_1_9 l_0_1_9))) 0.0))))))
(assert
 (let ((?x526 (* l_0_1_18 l_0_1_18)))
 (let ((?x524 (* l_0_1_17 l_0_1_17)))
 (let ((?x522 (* l_0_1_16 l_0_1_16)))
 (let ((?x254 (* l_0_1_6 l_0_1_6)))
 (let ((?x255 (+ (+ (* l_0_1_4 l_0_1_4) (* l_0_1_5 l_0_1_5)) ?x254)))
 (let ((?x80 (- _a_1_)))
 (let ((?x512 (- (- (* ?x80 ?x255) (* (* _a_2_ l_0_1_1) l_0_1_1)) (* (* (* 2.0 _a_5_) l_0_1_1) l_0_1_4))))
 (let ((?x518 (+ (+ ?x512 (* 1.0 (* l_0_1_10 l_0_1_10))) (* 1.0 (* l_0_1_11 l_0_1_11)))))
 (let ((?x527 (- (- (- (+ ?x518 (* 1.0 (* l_0_1_12 l_0_1_12))) ?x522) ?x524) ?x526)))
 (= ?x527 0.0)))))))))))
(assert
 (let ((?x254 (* l_0_1_6 l_0_1_6)))
 (let ((?x255 (+ (+ (* l_0_1_4 l_0_1_4) (* l_0_1_5 l_0_1_5)) ?x254)))
 (= (- (* (* (* (- 2.0) _a_2_) l_0_1_1) l_0_1_4) (* _a_5_ ?x255)) 0.0))))
(assert
 (let ((?x254 (* l_0_1_6 l_0_1_6)))
 (let ((?x255 (+ (+ (* l_0_1_4 l_0_1_4) (* l_0_1_5 l_0_1_5)) ?x254)))
 (let ((?x584 (- _a_2_)))
 (= (* ?x584 ?x255) 0.0)))))
(assert
 (let ((?x600 (- (* (- _a_3_) (+ (* l_0_1_2 l_0_1_2) (* l_0_1_3 l_0_1_3))) (* (* (* 2.0 _a_4_) l_0_1_1) l_0_1_2))))
 (= ?x600 0.0)))
(assert
 (= (* (- _a_4_) (+ (* l_0_1_2 l_0_1_2) (* l_0_1_3 l_0_1_3))) 0.0))
(assert
 (>= l_0_1_1 0.0))
(assert
 (>= l_0_1_3 0.0))
(assert
 (>= l_0_1_6 0.0))
(assert
 (>= l_0_1_7 0.0))
(assert
 (>= l_0_1_9 0.0))
(assert
 (>= l_0_1_12 0.0))
(assert
 (>= l_0_1_13 0.0))
(assert
 (>= l_0_1_15 0.0))
(assert
 (>= l_0_1_18 0.0))
(assert
 (let ((?x644 (+ (* (* 2.0 l_0_2_2) l_0_2_4) (* (* 2.0 l_0_2_3) l_0_2_5))))
 (let ((?x646 (- (+ (* (* (- _a_0_) l_0_2_1) l_0_2_1) _a_0_) (* _a_1_ ?x644))))
 (let ((?x652 (- (- ?x646 (* (* (* 2.0 _a_3_) l_0_2_1) l_0_2_4)) (* (* (* 2.0 _a_5_) l_0_2_1) l_0_2_2))))
 (let ((?x658 (- (- ?x652 (* (* 2.0 l_0_2_10) l_0_2_8)) (* (* 2.0 l_0_2_11) l_0_2_9))))
 (let ((?x664 (- (- ?x658 (* (* 2.0 l_0_2_14) l_0_2_16)) (* (* 2.0 l_0_2_15) l_0_2_17))))
 (= ?x664 0.0)))))))
(assert
 (= _a_0_ 0.0))
(assert
 (let ((?x735 (- (- (* 1.0 _a_0_) (* (* (* 2.0 _a_1_) l_0_2_1) l_0_2_2)) (* (* _a_3_ l_0_2_1) l_0_2_1))))
 (let ((?x742 (- (- (+ ?x735 _a_3_) (* (* 2.0 l_0_2_13) l_0_2_14)) (* (* 2.0 l_0_2_7) l_0_2_8))))
 (= ?x742 0.0))))
(assert
 (= (+ (* 1.0 _a_0_) _a_3_) 0.0))
(assert
 (let ((?x779 (* l_0_2_13 l_0_2_13)))
 (let ((?x776 (+ (+ (* (* (- _a_1_) l_0_2_1) l_0_2_1) _a_1_) (* 1.0 _a_2_))))
 (let ((?x783 (- (- (+ ?x776 (* 1.0 _a_5_)) ?x779) (* (* 1.0 l_0_2_7) l_0_2_7))))
 (= ?x783 0.0)))))
(assert
 (let ((?x821 (* l_0_2_18 l_0_2_18)))
 (let ((?x819 (* l_0_2_17 l_0_2_17)))
 (let ((?x817 (* l_0_2_16 l_0_2_16)))
 (let ((?x799 (* l_0_2_6 l_0_2_6)))
 (let ((?x800 (+ (+ (* l_0_2_4 l_0_2_4) (* l_0_2_5 l_0_2_5)) ?x799)))
 (let ((?x80 (- _a_1_)))
 (let ((?x807 (- (+ (- (* ?x80 ?x800) (* (* _a_2_ l_0_2_1) l_0_2_1)) _a_2_) (* (* (* 2.0 _a_5_) l_0_2_1) l_0_2_4))))
 (let ((?x813 (- (- ?x807 (* (* 1.0 l_0_2_10) l_0_2_10)) (* (* 1.0 l_0_2_11) l_0_2_11))))
 (let ((?x822 (- (- (- (- ?x813 (* (* 1.0 l_0_2_12) l_0_2_12)) ?x817) ?x819) ?x821)))
 (= ?x822 0.0)))))))))))
(assert
 (let ((?x870 (- (+ (* (* (* (- 2.0) _a_1_) l_0_2_1) l_0_2_4) (* 2.0 _a_2_)) (* (* _a_5_ l_0_2_1) l_0_2_1))))
 (let ((?x875 (- (- (+ ?x870 _a_5_) (* (* 2.0 l_0_2_10) l_0_2_7)) (* (* 2.0 l_0_2_13) l_0_2_16))))
 (= ?x875 0.0))))
(assert
 (let ((?x910 (* l_0_2_15 l_0_2_15)))
 (let ((?x908 (* l_0_2_14 l_0_2_14)))
 (let ((?x903 (- (* (- _a_1_) (+ (* l_0_2_2 l_0_2_2) (* l_0_2_3 l_0_2_3))) (* (* (* 2.0 _a_3_) l_0_2_1) l_0_2_2))))
 (let ((?x911 (- (- (+ (- ?x903 (* (* _a_4_ l_0_2_1) l_0_2_1)) _a_4_) ?x908) ?x910)))
 (let ((?x917 (- (- ?x911 (* (* 1.0 l_0_2_8) l_0_2_8)) (* (* 1.0 l_0_2_9) l_0_2_9))))
 (= ?x917 0.0)))))))
(assert
 (let ((?x195 (* 2.0 _a_4_)))
 (= ?x195 0.0)))
(assert
 (= _a_4_ 0.0))
(assert
 (let ((?x644 (+ (* (* 2.0 l_0_2_2) l_0_2_4) (* (* 2.0 l_0_2_3) l_0_2_5))))
 (let ((?x959 (- (- (* (* (* (- 2.0) _a_0_) l_0_2_1) l_0_2_2) (* _a_3_ ?x644)) (* (* (* 2.0 _a_4_) l_0_2_1) l_0_2_4))))
 (let ((?x961 (- ?x959 (* _a_5_ (+ (* l_0_2_2 l_0_2_2) (* l_0_2_3 l_0_2_3))))))
 (= ?x961 0.0)))))
(assert
 (let ((?x644 (+ (* (* 2.0 l_0_2_2) l_0_2_4) (* (* 2.0 l_0_2_3) l_0_2_5))))
 (let ((?x799 (* l_0_2_6 l_0_2_6)))
 (let ((?x800 (+ (+ (* l_0_2_4 l_0_2_4) (* l_0_2_5 l_0_2_5)) ?x799)))
 (let ((?x1007 (- (* (* (* (- 2.0) _a_0_) l_0_2_1) l_0_2_4) (* (* (* 2.0 _a_2_) l_0_2_1) l_0_2_2))))
 (= (- (- ?x1007 (* _a_3_ ?x800)) (* _a_5_ ?x644)) 0.0))))))
(assert
 (let ((?x644 (+ (* (* 2.0 l_0_2_2) l_0_2_4) (* (* 2.0 l_0_2_3) l_0_2_5))))
 (let ((?x1061 (- (* (- _a_0_) (+ (* l_0_2_2 l_0_2_2) (* l_0_2_3 l_0_2_3))) (* _a_4_ ?x644))))
 (= ?x1061 0.0))))
(assert
 (let ((?x799 (* l_0_2_6 l_0_2_6)))
 (let ((?x800 (+ (+ (* l_0_2_4 l_0_2_4) (* l_0_2_5 l_0_2_5)) ?x799)))
 (let ((?x644 (+ (* (* 2.0 l_0_2_2) l_0_2_4) (* (* 2.0 l_0_2_3) l_0_2_5))))
 (let ((?x97 (- _a_0_)))
 (let ((?x1089 (- (* ?x97 ?x644) (* _a_2_ (+ (* l_0_2_2 l_0_2_2) (* l_0_2_3 l_0_2_3))))))
 (= (- ?x1089 (* _a_4_ ?x800)) 0.0)))))))
(assert
 (let ((?x644 (+ (* (* 2.0 l_0_2_2) l_0_2_4) (* (* 2.0 l_0_2_3) l_0_2_5))))
 (let ((?x799 (* l_0_2_6 l_0_2_6)))
 (let ((?x800 (+ (+ (* l_0_2_4 l_0_2_4) (* l_0_2_5 l_0_2_5)) ?x799)))
 (let ((?x97 (- _a_0_)))
 (= (- (* ?x97 ?x800) (* _a_2_ ?x644)) 0.0))))))
(assert
 (let ((?x799 (* l_0_2_6 l_0_2_6)))
 (let ((?x800 (+ (+ (* l_0_2_4 l_0_2_4) (* l_0_2_5 l_0_2_5)) ?x799)))
 (= (- (* (* (* (- 2.0) _a_2_) l_0_2_1) l_0_2_4) (* _a_5_ ?x800)) 0.0))))
(assert
 (let ((?x799 (* l_0_2_6 l_0_2_6)))
 (let ((?x800 (+ (+ (* l_0_2_4 l_0_2_4) (* l_0_2_5 l_0_2_5)) ?x799)))
 (let ((?x584 (- _a_2_)))
 (= (* ?x584 ?x800) 0.0)))))
(assert
 (let ((?x1195 (- (* (- _a_3_) (+ (* l_0_2_2 l_0_2_2) (* l_0_2_3 l_0_2_3))) (* (* (* 2.0 _a_4_) l_0_2_1) l_0_2_2))))
 (= ?x1195 0.0)))
(assert
 (= (* (- _a_4_) (+ (* l_0_2_2 l_0_2_2) (* l_0_2_3 l_0_2_3))) 0.0))
(assert
 (>= l_0_2_1 0.0))
(assert
 (>= l_0_2_3 0.0))
(assert
 (>= l_0_2_6 0.0))
(assert
 (>= l_0_2_7 0.0))
(assert
 (>= l_0_2_9 0.0))
(assert
 (>= l_0_2_12 0.0))
(assert
 (>= l_0_2_13 0.0))
(assert
 (>= l_0_2_15 0.0))
(assert
 (>= l_0_2_18 0.0))
(check-sat)
(get-model)